5
20
0 30 40 49 59 60 69 97 98 89 80 71 62 52 53 44 41 32 20 1
21
0 18 27 36 45 54 63 73 72 81 90 91 93 92 82 83 75 64 55 38 9
20
0 19 39 57 66 67 74 84 85 86 87 76 77 68 25 24 23 22 14 2
18
0 12 21 31 50 61 70 79 88 96 95 94 78 58 48 47 28 10
24
0 3 4 13 5 6 7 8 17 16 15 26 34 35 43 33 42 51 65 56 46 37 29 11
